378246
9,7,82,2,51,78,41,72,68,25,54,20,67,26,36,62,21,31,38,77,81,55,79,65,3,43,33,60,16,18,14,28,8,35,42,5,6,11,19,24,75,59,34,47,30,12,57,61,52,4,27,13,1,23,15,69,63,39,53,50,32,66,17,76,56,45,70,10,64,73,71,83,22,74,40,58,48,37,44,49,46,80,29